0 3192
2 3118
3 3094
4 3081
5 3062
7 3058
9 3029
12 3013
19 3012
22 2989
26 2988
31 2960
32 2944
44 2881
57 2880
62 2879
64 2859
898 2855
902 2829
906 2820
908 2819
1147 2808
1211 2797
1229 2789
1369 2787
1373 2782
1776 2777
1790 2774
1796 2752
1802 2744
2852 2741
2877 2729
